p cnf 308 637
1 0
2 0
3 0
4 0
5 0
6 0
7 0
8 0
9 0
10 0
-11 0
-12 0
-13 0
-14 0
-15 0
-16 0
-17 0
-18 0
-19 0
-20 0
-21 22 0
22 -23 0
21 23 -22 0
1 -22 0
-1 22 0
-24 25 0
-26 25 0
24 26 -25 0
21 -25 0
-21 25 0
-27 28 0
-29 28 0
27 29 -28 0
24 -28 0
-24 28 0
-30 31 0
-32 31 0
30 32 -31 0
27 -31 0
-27 31 0
-33 34 0
34 -35 0
33 35 -34 0
30 -34 0
-30 34 0
-36 37 0
37 -38 0
36 38 -37 0
33 -37 0
-33 37 0
-39 40 0
40 -41 0
39 41 -40 0
36 -40 0
-36 40 0
-42 43 0
43 -44 0
42 44 -43 0
39 -43 0
-39 43 0
-45 46 0
46 -47 0
45 47 -46 0
42 -46 0
-42 46 0
-48 49 0
-50 49 0
48 50 -49 0
45 -49 0
-45 49 0
-38 51 0
-41 51 0
-44 51 0
-47 51 0
-50 51 0
-52 51 0
53 0
48 -51 0
-48 51 0
-54 55 0
-56 55 0
54 56 -55 0
2 -55 0
-2 55 0
-57 58 0
-59 58 0
57 59 -58 0
54 -58 0
-54 58 0
-60 61 0
61 -62 0
60 62 -61 0
57 -61 0
-57 61 0
-63 64 0
-65 64 0
63 65 -64 0
60 -64 0
-60 64 0
-66 67 0
67 -68 0
66 68 -67 0
63 -67 0
-63 67 0
-69 70 0
70 -71 0
69 71 -70 0
66 -70 0
-66 70 0
-72 73 0
-74 73 0
72 74 -73 0
69 -73 0
-69 73 0
-65 75 0
-68 75 0
-71 75 0
-74 75 0
-76 75 0
65 68 71 74 76 -75 0
72 -75 0
-72 75 0
-77 78 0
78 -79 0
77 79 -78 0
3 -78 0
-3 78 0
-80 81 0
-82 81 0
80 82 -81 0
77 -81 0
-77 81 0
-83 84 0
84 -85 0
83 85 -84 0
80 -84 0
-80 84 0
-86 87 0
87 -88 0
86 88 -87 0
83 -87 0
-83 87 0
-89 90 0
90 -91 0
89 91 -90 0
86 -90 0
-86 90 0
-92 93 0
93 -94 0
92 94 -93 0
89 -93 0
-89 93 0
-95 96 0
-97 96 0
95 97 -96 0
92 -96 0
-92 96 0
-98 99 0
-100 99 0
98 100 -99 0
95 -99 0
-95 99 0
-101 102 0
-103 102 0
101 103 -102 0
98 -102 0
-98 102 0
-104 105 0
105 -106 0
104 106 -105 0
101 -105 0
-101 105 0
-94 107 0
-97 107 0
-100 107 0
-103 107 0
-106 107 0
-108 107 0
109 0
104 -107 0
-104 107 0
-110 111 0
111 -112 0
110 112 -111 0
4 -111 0
-4 111 0
-113 114 0
114 -115 0
113 115 -114 0
110 -114 0
-110 114 0
-116 117 0
117 -118 0
116 118 -117 0
113 -117 0
-113 117 0
-119 120 0
-121 120 0
119 121 -120 0
116 -120 0
-116 120 0
-122 123 0
123 -124 0
122 124 -123 0
119 -123 0
-119 123 0
-125 126 0
126 -127 0
125 127 -126 0
122 -126 0
-122 126 0
-128 129 0
-130 129 0
128 130 -129 0
125 -129 0
-125 129 0
-131 132 0
-133 132 0
131 133 -132 0
128 -132 0
-128 132 0
-134 135 0
-136 135 0
134 136 -135 0
131 -135 0
-131 135 0
-137 138 0
138 -139 0
137 139 -138 0
134 -138 0
-134 138 0
-127 140 0
-130 140 0
-133 140 0
-136 140 0
-139 140 0
-141 140 0
142 0
137 -140 0
-137 140 0
-143 144 0
144 -145 0
143 145 -144 0
5 -144 0
-5 144 0
-146 147 0
147 -148 0
146 148 -147 0
143 -147 0
-143 147 0
-149 150 0
-151 150 0
149 151 -150 0
146 -150 0
-146 150 0
-152 153 0
153 -154 0
152 154 -153 0
149 -153 0
-149 153 0
-155 156 0
-157 156 0
155 157 -156 0
152 -156 0
-152 156 0
-158 159 0
-160 159 0
158 160 -159 0
155 -159 0
-155 159 0
-161 162 0
162 -163 0
161 163 -162 0
158 -162 0
-158 162 0
-164 165 0
165 -166 0
164 166 -165 0
161 -165 0
-161 165 0
-157 167 0
-160 167 0
-163 167 0
-166 167 0
-168 167 0
157 160 163 166 168 -167 0
164 -167 0
-164 167 0
-169 170 0
-171 170 0
169 171 -170 0
6 -170 0
-6 170 0
-172 173 0
173 -174 0
172 174 -173 0
169 -173 0
-169 173 0
-175 176 0
176 -177 0
175 177 -176 0
172 -176 0
-172 176 0
175 -178 0
-175 178 0
-179 180 0
180 -181 0
179 181 -180 0
7 -180 0
-7 180 0
-182 183 0
-184 183 0
182 184 -183 0
179 -183 0
-179 183 0
-185 186 0
186 -187 0
185 187 -186 0
182 -186 0
-182 186 0
-188 189 0
-190 189 0
188 190 -189 0
185 -189 0
-185 189 0
-191 192 0
-193 192 0
191 193 -192 0
188 -192 0
-188 192 0
-194 195 0
-196 195 0
194 196 -195 0
191 -195 0
-191 195 0
-197 198 0
-199 198 0
197 199 -198 0
194 -198 0
-194 198 0
-200 201 0
201 -202 0
200 202 -201 0
197 -201 0
-197 201 0
-193 203 0
-196 203 0
-199 203 0
-202 203 0
203 -204 0
193 196 199 202 204 -203 0
200 -203 0
-200 203 0
-205 206 0
-207 206 0
205 207 -206 0
8 -206 0
-8 206 0
-208 209 0
-210 209 0
208 210 -209 0
205 -209 0
-205 209 0
-211 212 0
-213 212 0
211 213 -212 0
208 -212 0
-208 212 0
-214 215 0
215 -216 0
214 216 -215 0
211 -215 0
-211 215 0
-217 218 0
-219 218 0
217 219 -218 0
214 -218 0
-214 218 0
-220 221 0
-222 221 0
220 222 -221 0
217 -221 0
-217 221 0
-223 224 0
224 -225 0
223 225 -224 0
220 -224 0
-220 224 0
-226 227 0
-228 227 0
226 228 -227 0
223 -227 0
-223 227 0
-229 230 0
230 -231 0
229 231 -230 0
226 -230 0
-226 230 0
-225 232 0
-228 232 0
-231 232 0
232 -233 0
225 228 231 233 -232 0
229 -232 0
-229 232 0
-234 235 0
235 -236 0
234 236 -235 0
9 -235 0
-9 235 0
-237 238 0
238 -239 0
237 239 -238 0
234 -238 0
-234 238 0
-240 241 0
-242 241 0
240 242 -241 0
237 -241 0
-237 241 0
-243 244 0
-245 244 0
243 245 -244 0
240 -244 0
-240 244 0
-246 247 0
-248 247 0
246 248 -247 0
243 -247 0
-243 247 0
-249 250 0
250 -251 0
249 251 -250 0
246 -250 0
-246 250 0
-252 253 0
-254 253 0
252 254 -253 0
249 -253 0
-249 253 0
-255 256 0
-257 256 0
255 257 -256 0
252 -256 0
-252 256 0
-258 259 0
-260 259 0
258 260 -259 0
255 -259 0
-255 259 0
-261 262 0
262 -263 0
261 263 -262 0
258 -262 0
-258 262 0
-251 264 0
-254 264 0
-257 264 0
-260 264 0
-263 264 0
264 -265 0
266 0
261 -264 0
-261 264 0
-267 268 0
268 -269 0
267 269 -268 0
10 -268 0
-10 268 0
-270 271 0
-272 271 0
270 272 -271 0
267 -271 0
-267 271 0
-273 274 0
-275 274 0
273 275 -274 0
270 -274 0
-270 274 0
-276 277 0
277 -278 0
276 278 -277 0
273 -277 0
-273 277 0
-279 280 0
280 -281 0
279 281 -280 0
276 -280 0
-276 280 0
-282 283 0
283 -284 0
282 284 -283 0
279 -283 0
-279 283 0
-285 286 0
286 -287 0
285 287 -286 0
282 -286 0
-282 286 0
-281 288 0
-284 288 0
-287 288 0
-289 288 0
281 284 287 289 -288 0
285 -288 0
-285 288 0
11 -290 0
-11 290 0
12 -291 0
-12 291 0
13 -292 0
-13 292 0
14 -293 0
-14 293 0
15 -294 0
-15 294 0
16 -295 0
-16 295 0
17 -296 0
-17 296 0
18 -297 0
-18 297 0
19 -298 0
-19 298 0
20 -299 0
-20 299 0
23 -300 0
-300 -26 0
-300 -29 0
-300 -32 0
35 -300 0
38 -300 0
41 -300 0
44 -300 0
47 -300 0
-300 -50 0
-300 -52 0
-300 -56 0
-300 -59 0
62 -300 0
-300 -65 0
68 -300 0
71 -300 0
-300 -74 0
-300 -76 0
79 -300 0
-300 -82 0
85 -300 0
88 -300 0
91 -300 0
94 -300 0
-300 -97 0
-300 -100 0
-300 -103 0
106 -300 0
-300 -108 0
112 -300 0
115 -300 0
118 -300 0
-300 -121 0
124 -300 0
127 -300 0
-300 -130 0
-300 -133 0
-300 -136 0
139 -300 0
-300 -141 0
145 -300 0
148 -300 0
-300 -151 0
154 -300 0
-300 -157 0
-300 -160 0
163 -300 0
166 -300 0
-300 -168 0
-300 -171 0
174 -300 0
177 -300 0
-300 -178 0
181 -300 0
-300 -184 0
187 -300 0
-300 -190 0
-300 -193 0
-300 -196 0
-300 -199 0
202 -300 0
204 -300 0
-300 -207 0
-300 -210 0
-300 -213 0
216 -300 0
-300 -219 0
-300 -222 0
225 -300 0
-300 -228 0
231 -300 0
233 -300 0
236 -300 0
239 -300 0
-300 -242 0
-300 -245 0
-300 -248 0
251 -300 0
-300 -254 0
-300 -257 0
-300 -260 0
263 -300 0
265 -300 0
269 -300 0
-300 -272 0
-300 -275 0
278 -300 0
281 -300 0
284 -300 0
287 -300 0
-300 -289 0
-300 -290 0
-300 -291 0
-300 -292 0
-300 -293 0
-300 -294 0
-300 -295 0
-300 -296 0
-300 -297 0
-300 -298 0
-300 -299 0
300 0
-301 0
-302 0
-303 0
-304 0
-305 0
-306 0
-307 0
-308 0
